objective value:                                   15
lambda[0,27]*                                       1 	(obj:0)
lambda[1,35]*                                       1 	(obj:5)
lambda[0,36]*                                       1 	(obj:0)
lambda[1,44]*                                       3 	(obj:0)
lambda[1,47]*                                       1 	(obj:5)
lambda[1,49]*                                       1 	(obj:0)
lambda[1,60]*                                       1 	(obj:0)
lambda[0,47]*                                       2 	(obj:0)
lambda[0,50]*                                       5 	(obj:0)
lambda[1,70]*                                       1 	(obj:0)
lambda[1,71]*                                       1 	(obj:5)
lambda[0,52]*                                       1 	(obj:0)
lambda[1,78]*                                       1 	(obj:0)
